id: 1903
name: dfl001
group: netlib
method: 1

Gurobi 7.0.2 (linux64, Matlab) logging started Tue Apr 24 01:29:12 2018


Gurobi 7.0.2 (linux64) logging started Tue Apr 24 01:29:12 2018

Optimize a model with 6071 rows, 12230 columns and 35632 nonzeros
Coefficient statistics:
  Matrix range     [8e-02, 2e+00]
  Objective range  [6e+02, 4e+07]
  Bounds range     [4e+00, 1e+02]
  RHS range        [1e+00, 1e+02]
Presolve removed 2367 rows and 3396 columns
Presolve time: 0.07s
Presolved: 3704 rows, 8834 columns, 30981 nonzeros

Iteration    Objective       Primal Inf.    Dual Inf.      Time
       0    2.1669704e+06   5.728472e+03   0.000000e+00      0s
   18348    1.1265758e+07   6.968073e+02   0.000000e+00      5s
   20216    1.1266396e+07   0.000000e+00   0.000000e+00      6s

Solved in 20216 iterations and 5.72 seconds
Optimal objective  1.126639605e+07
status: OPTIMAL
